
Gurobi 7.5.2 (linux64) logging started Sat Jul  7 16:02:18 2018

Changed value of parameter LogFile to result/ilp/simNo_6-n_100-m_40-s_4-minVAF_0.05-cov_10000-k_2-fn_0.25-fp_0.0001-na_0.15.ILP.gurobiSolverLog
   Prev: gurobi.log  Default: 
Changed value of parameter TimeLimit to 86400.0
   Prev: 1e+100  Min: 0.0  Max: 1e+100  Default: 1e+100
Optimize a model with 639293 rows, 10765 columns and 1940420 nonzeros
Variable types: 0 continuous, 10765 integer (10765 binary)
Coefficient statistics:
  Matrix range     [4e-05, 4e+00]
  Objective range  [9e-01, 2e+01]
  Bounds range     [1e+00, 1e+00]
  RHS range        [3e-01, 2e+00]
Found heuristic solution: objective -12775.22481
Presolve removed 132317 rows and 1028 columns (presolve time = 5s) ...
Presolve removed 132900 rows and 1028 columns (presolve time = 14s) ...
Presolve removed 191200 rows and 1611 columns (presolve time = 15s) ...
Presolve removed 191200 rows and 1611 columns (presolve time = 21s) ...
Presolve removed 191200 rows and 1611 columns
Presolve time: 21.56s
Presolved: 448093 rows, 9154 columns, 1346562 nonzeros
Variable types: 0 continuous, 9154 integer (9154 binary)
Presolved: 9154 rows, 457247 columns, 1355716 nonzeros

Presolve removed 9154 rows and 457247 columns

Root simplex log...

Iteration    Objective       Primal Inf.    Dual Inf.      Time
       0    4.9028508e+01   0.000000e+00   6.658700e+04     25s
   27443   -2.1839415e+02   0.000000e+00   1.280290e+05     30s
   43105   -2.5350242e+02   0.000000e+00   0.000000e+00     34s
   43105   -2.5350242e+02   0.000000e+00   0.000000e+00     34s

Root relaxation: objective -2.535024e+02, 43105 iterations, 11.08 seconds
Total elapsed time = 35.20s
Total elapsed time = 61.80s
Total elapsed time = 73.37s

    Nodes    |    Current Node    |     Objective Bounds      |     Work
 Expl Unexpl |  Obj  Depth IntInf | Incumbent    BestBd   Gap | It/Node Time

     0     0 -253.50242    0 1827 -12775.225 -253.50242  98.0%     -   86s
H    0     0                    -1052.061020 -253.50242  75.9%     -   90s
H    0     0                    -725.1764604 -253.50242  65.0%     -   93s
H    0     0                    -694.5021451 -253.50242  63.5%     -   93s
     0     0 -257.18365    0 1883 -694.50215 -257.18365  63.0%     -  107s
H    0     0                    -509.8632268 -257.18365  49.6%     -  116s
H    0     0                    -351.5193197 -257.18365  26.8%     -  118s
H    0     0                    -342.9986766 -257.18365  25.0%     -  122s
     0     0 -257.19298    0 1900 -342.99868 -257.19298  25.0%     -  124s
     0     0 -259.81426    0 1883 -342.99868 -259.81426  24.3%     -  150s
H    0     0                    -328.5135832 -259.81426  20.9%     -  167s
     0     0 -260.10420    0 1888 -328.51358 -260.10420  20.8%     -  172s
     0     0 -260.12922    0 1880 -328.51358 -260.12922  20.8%     -  176s
     0     0 -260.12922    0 1881 -328.51358 -260.12922  20.8%     -  178s
     0     0 -261.08224    0 1864 -328.51358 -261.08224  20.5%     -  194s
     0     0 -261.10591    0 1864 -328.51358 -261.10591  20.5%     -  203s
     0     0 -262.59530    0 1870 -328.51358 -262.59530  20.1%     -  224s
H    0     0                    -327.6615189 -262.59530  19.9%     -  231s
     0     0 -262.59530    0 1868 -327.66152 -262.59530  19.9%     -  233s
     0     0 -262.97571    0 1810 -327.66152 -262.97571  19.7%     -  251s
     0     0 -263.18281    0 1806 -327.66152 -263.18281  19.7%     -  269s
     0     0 -263.18281    0 1807 -327.66152 -263.18281  19.7%     -  272s
     0     0 -263.91259    0 1793 -327.66152 -263.91259  19.5%     -  285s
     0     0 -264.26762    0 1822 -327.66152 -264.26762  19.3%     -  293s
     0     0 -265.51130    0 1789 -327.66152 -265.51130  19.0%     -  315s
     0     0 -265.51130    0 1803 -327.66152 -265.51130  19.0%     -  320s
     0     0 -266.63768    0 1836 -327.66152 -266.63768  18.6%     -  344s
     0     0 -266.64630    0 1830 -327.66152 -266.64630  18.6%     -  355s
     0     0 -266.68180    0 1850 -327.66152 -266.68180  18.6%     -  361s
     0     0 -266.76858    0 1826 -327.66152 -266.76858  18.6%     -  366s
     0     0 -266.76858    0 1831 -327.66152 -266.76858  18.6%     -  369s
     0     0 -267.94017    0 1827 -327.66152 -267.94017  18.2%     -  399s
H    0     0                    -322.5491330 -267.94017  16.9%     -  404s
     0     0 -267.97567    0 1855 -322.54913 -267.97567  16.9%     -  409s
     0     0 -267.97567    0 1838 -322.54913 -267.97567  16.9%     -  412s
     0     0 -268.86324    0 1843 -322.54913 -268.86324  16.6%     -  458s
H    0     0                    -316.5846828 -268.86324  15.1%     -  474s
     0     0 -268.89874    0 1843 -316.58468 -268.89874  15.1%     -  493s
     0     0 -268.91650    0 1846 -316.58468 -268.91650  15.1%     -  499s
     0     0 -268.98750    0 1862 -316.58468 -268.98750  15.0%     -  506s
     0     0 -269.03721    0 1854 -316.58468 -269.03721  15.0%     -  512s
     0     0 -269.03721    0 1858 -316.58468 -269.03721  15.0%     -  515s
     0     0 -270.06265    0 1864 -316.58468 -270.06265  14.7%     -  639s
     0     0 -270.06265    0 1863 -316.58468 -270.06265  14.7%     -  668s
     0     0 -271.68425    0 1810 -316.58468 -271.68425  14.2%     -  862s
     0     0 -272.29518    0 1876 -316.58468 -272.29518  14.0%     -  959s
     0     0 -272.38702    0 1894 -316.58468 -272.38702  14.0%     -  986s
     0     0 -272.41589    0 1898 -316.58468 -272.41589  14.0%     -  995s
     0     0 -272.42987    0 1903 -316.58468 -272.42987  13.9%     - 1005s
     0     0 -272.42987    0 1911 -316.58468 -272.42987  13.9%     - 1007s
     0     0 -274.07030    0 1896 -316.58468 -274.07030  13.4%     - 1465s
     0     0 -274.43522    0 1863 -316.58468 -274.43522  13.3%     - 1513s
     0     0 -274.43522    0 1854 -316.58468 -274.43522  13.3%     - 1517s
     0     0 -274.87678    0 1885 -316.58468 -274.87678  13.2%     - 1627s
     0     0 -275.04757    0 1864 -316.58468 -275.04757  13.1%     - 1730s
     0     0 -275.12393    0 1889 -316.58468 -275.12393  13.1%     - 1753s
     0     0 -275.12393    0 1893 -316.58468 -275.12393  13.1%     - 1759s
     0     0 -275.72096    0 1924 -316.58468 -275.72096  12.9%     - 3227s
     0     0 -275.79937    0 1932 -316.58468 -275.79937  12.9%     - 3320s
     0     0 -275.87774    0 1941 -316.58468 -275.87774  12.9%     - 3331s
     0     0 -275.91827    0 1948 -316.58468 -275.91827  12.8%     - 3362s
     0     0 -275.92734    0 1939 -316.58468 -275.92734  12.8%     - 3373s
     0     0 -275.93282    0 1951 -316.58468 -275.93282  12.8%     - 3386s
     0     0 -275.93282    0 1953 -316.58468 -275.93282  12.8%     - 3390s
     0     0 -276.83422    0 1887 -316.58468 -276.83422  12.6%     - 4086s
H    0     0                    -312.3243613 -276.83422  11.4%     - 4095s
     0     0 -277.11379    0 1893 -312.32436 -277.11379  11.3%     - 4235s
     0     0 -277.12996    0 1906 -312.32436 -277.12996  11.3%     - 4254s
     0     0 -277.14403    0 1911 -312.32436 -277.14403  11.3%     - 4268s
     0     0 -277.14403    0 1917 -312.32436 -277.14403  11.3%     - 4272s
     0     0 -277.76261    0 2076 -312.32436 -277.76261  11.1%     - 6401s
H    0     0                    -311.4722970 -277.76261  10.8%     - 6416s
     0     0 -277.97020    0 2000 -311.47230 -277.97020  10.8%     - 6439s
     0     0 -278.00893    0 2002 -311.47230 -278.00893  10.7%     - 6455s
     0     0 -278.00893    0 2001 -311.47230 -278.00893  10.7%     - 6460s
     0     0 -278.10027    0 2002 -311.47230 -278.10027  10.7%     - 6487s
     0     0 -278.25902    0 1967 -311.47230 -278.25902  10.7%     - 7062s
     0     0 -278.28009    0 1983 -311.47230 -278.28009  10.7%     - 7098s
     0     0 -278.28600    0 1999 -311.47230 -278.28600  10.7%     - 7111s
     0     0 -278.28600    0 2002 -311.47230 -278.28600  10.7%     - 7115s
     0     0 -278.44831    0 1974 -311.47230 -278.44831  10.6%     - 7275s
     0     0 -278.49058    0 2059 -311.47230 -278.49058  10.6%     - 7329s
     0     0 -278.49104    0 2057 -311.47230 -278.49104  10.6%     - 7343s
     0     0 -278.69759    0 2017 -311.47230 -278.69759  10.5%     - 11144s
     0     0 -278.83915    0 2092 -311.47230 -278.83915  10.5%     - 11175s
     0     0 -278.84455    0 2097 -311.47230 -278.84455  10.5%     - 11184s
     0     0 -278.84455    0 2098 -311.47230 -278.84455  10.5%     - 11187s
     0     0 -279.01075    0 2080 -311.47230 -279.01075  10.4%     - 11222s
     0     0 -279.16855    0 2075 -311.47230 -279.16855  10.4%     - 11271s
     0     0 -279.17283    0 2043 -311.47230 -279.17283  10.4%     - 11279s
     0     0 -279.17800    0 2055 -311.47230 -279.17800  10.4%     - 11290s
     0     0 -279.18268    0 2043 -311.47230 -279.18268  10.4%     - 11295s
     0     0 -279.18385    0 2052 -311.47230 -279.18385  10.4%     - 11299s
     0     0 -279.64639    0 2061 -311.47230 -279.64639  10.2%     - 11498s
     0     0 -279.76549    0 2063 -311.47230 -279.76549  10.2%     - 11534s
     0     0 -279.78611    0 2061 -311.47230 -279.78611  10.2%     - 11543s
     0     0 -279.80600    0 2066 -311.47230 -279.80600  10.2%     - 11549s
     0     0 -279.80633    0 2062 -311.47230 -279.80633  10.2%     - 11555s
     0     0 -279.88384    0 2048 -311.47230 -279.88384  10.1%     - 11578s
     0     0 -279.99701    0 2057 -311.47230 -279.99701  10.1%     - 11646s
     0     0 -280.01441    0 2057 -311.47230 -280.01441  10.1%     - 11662s
     0     0 -280.02001    0 2066 -311.47230 -280.02001  10.1%     - 11669s
     0     0 -280.02338    0 2061 -311.47230 -280.02338  10.1%     - 11675s
     0     0 -280.02338    0 2061 -311.47230 -280.02338  10.1%     - 11677s
     0     0 -280.17950    0 2058 -311.47230 -280.17950  10.0%     - 11715s
H    0     0                    -305.9302302 -280.17950  8.42%     - 11726s
     0     0 -280.29878    0 2060 -305.93023 -280.29878  8.38%     - 11754s
     0     0 -280.37979    0 2052 -305.93023 -280.37979  8.35%     - 11764s
     0     0 -280.41194    0 2072 -305.93023 -280.41194  8.34%     - 11775s
     0     0 -280.42046    0 2075 -305.93023 -280.42046  8.34%     - 11783s
     0     0 -280.42046    0 2074 -305.93023 -280.42046  8.34%     - 11787s
     0     0 -280.77124    0 2068 -305.93023 -280.77124  8.22%     - 12512s
H    0     0                    -305.8581219 -280.77124  8.20%     - 12528s
     0     0 -280.87127    0 2065 -305.85812 -280.87127  8.17%     - 12799s
     0     0 -280.87170    0 2101 -305.85812 -280.87170  8.17%     - 12813s
     0     0 -281.23676    0 2039 -305.85812 -281.23676  8.05%     - 12904s
     0     0 -281.27258    0 2091 -305.85812 -281.27258  8.04%     - 12950s
     0     0 -281.27659    0 2090 -305.85812 -281.27659  8.04%     - 13024s
     0     0 -281.27740    0 2093 -305.85812 -281.27740  8.04%     - 13034s
     0     0 -281.67114    0 2077 -305.85812 -281.67114  7.91%     - 13551s
     0     0 -281.74186    0 2097 -305.85812 -281.74186  7.88%     - 13626s
     0     0 -281.75906    0 2095 -305.85812 -281.75906  7.88%     - 13637s
     0     0 -281.76727    0 2094 -305.85812 -281.76727  7.88%     - 13642s
     0     0 -281.77025    0 2098 -305.85812 -281.77025  7.88%     - 13646s
     0     0 -281.77036    0 2096 -305.85812 -281.77036  7.88%     - 13651s
     0     0 -281.95473    0 2085 -305.85812 -281.95473  7.82%     - 13714s
     0     0 -282.03929    0 2077 -305.85812 -282.03929  7.79%     - 13874s
     0     0 -282.06027    0 2097 -305.85812 -282.06027  7.78%     - 13894s
     0     0 -282.06092    0 2101 -305.85812 -282.06092  7.78%     - 13900s
     0     0 -282.06092    0 2104 -305.85812 -282.06092  7.78%     - 13924s
     0     0 -282.06092    0 2106 -305.85812 -282.06092  7.78%     - 13933s
     0     0 -282.08585    0 2097 -305.85812 -282.08585  7.77%     - 13956s
     0     0 -282.11404    0 2102 -305.85812 -282.11404  7.76%     - 13979s
     0     0 -282.12994    0 2100 -305.85812 -282.12994  7.76%     - 13989s
     0     0 -282.13114    0 2101 -305.85812 -282.13114  7.76%     - 13993s
     0     0 -282.19134    0 1949 -305.85812 -282.19134  7.74%     - 14709s
H    0     0                    -305.0781659 -282.19134  7.50%     - 14726s
     0     0 -282.23007    0 1958 -305.07817 -282.23007  7.49%     - 14780s
     0     0 -282.23757    0 2001 -305.07817 -282.23757  7.49%     - 14794s
     0     0 -282.23924    0 2005 -305.07817 -282.23924  7.49%     - 14803s
     0     0 -282.28057    0 1994 -305.07817 -282.28057  7.47%     - 14821s
     0     0 -282.33321    0 1991 -305.07817 -282.33321  7.46%     - 14845s
     0     0 -282.34150    0 1992 -305.07817 -282.34150  7.45%     - 14852s
     0     0 -282.34925    0 1989 -305.07817 -282.34925  7.45%     - 14856s
     0     0 -282.34947    0 1995 -305.07817 -282.34947  7.45%     - 14860s
     0     0 -282.43602    0 1996 -305.07817 -282.43602  7.42%     - 14884s
     0     0 -282.44504    0 2001 -305.07817 -282.44504  7.42%     - 14905s
     0     0 -282.45151    0 2001 -305.07817 -282.45151  7.42%     - 14909s
     0     0 -282.45748    0 2008 -305.07817 -282.45748  7.41%     - 14912s
     0     0 -282.46138    0 2008 -305.07817 -282.46138  7.41%     - 14914s
     0     0 -282.46183    0 2008 -305.07817 -282.46183  7.41%     - 14918s
     0     0 -282.46993    0 2009 -305.07817 -282.46993  7.41%     - 14930s
     0     0 -282.49975    0 2009 -305.07817 -282.49975  7.40%     - 14946s
     0     0 -282.50127    0 2009 -305.07817 -282.50127  7.40%     - 14949s
     0     0 -282.50248    0 2015 -305.07817 -282.50248  7.40%     - 14963s
     0     0 -282.50301    0 2020 -305.07817 -282.50301  7.40%     - 14980s
     0     0 -282.61845    0 2013 -305.07817 -282.61845  7.36%     - 14994s
     0     0 -282.65737    0 2016 -305.07817 -282.65737  7.35%     - 15013s
     0     0 -282.67251    0 2014 -305.07817 -282.67251  7.34%     - 15016s
     0     0 -282.67614    0 2020 -305.07817 -282.67614  7.34%     - 15019s
     0     0 -282.67614    0 2022 -305.07817 -282.67614  7.34%     - 15022s
     0     0 -282.72130    0 2009 -305.07817 -282.72130  7.33%     - 15036s
     0     0 -282.72459    0 2009 -305.07817 -282.72459  7.33%     - 15052s
     0     0 -282.72800    0 2009 -305.07817 -282.72800  7.33%     - 15055s
     0     0 -282.72842    0 2009 -305.07817 -282.72842  7.33%     - 15059s
     0     0 -282.72842    0 2010 -305.07817 -282.72842  7.33%     - 15071s
     0     0 -282.80455    0 2007 -305.07817 -282.80455  7.30%     - 15090s
     0     0 -282.81160    0 2005 -305.07817 -282.81160  7.30%     - 15094s
     0     0 -282.81441    0 2007 -305.07817 -282.81441  7.30%     - 15098s
     0     0 -282.86486    0 1961 -305.07817 -282.86486  7.28%     - 15305s
     0     0 -282.87644    0 1973 -305.07817 -282.87644  7.28%     - 15332s
     0     0 -282.88124    0 1970 -305.07817 -282.88124  7.28%     - 15336s
     0     0 -282.88674    0 1976 -305.07817 -282.88674  7.27%     - 15341s
     0     0 -282.88801    0 1978 -305.07817 -282.88801  7.27%     - 15345s
     0     0 -283.13866    0 1975 -305.07817 -283.13866  7.19%     - 15360s
     0     0 -283.13866    0 1975 -305.07817 -283.13866  7.19%     - 15377s
     0     0 -283.25789    0 1969 -305.07817 -283.25789  7.15%     - 15406s
     0     0 -283.26900    0 2028 -305.07817 -283.26900  7.15%     - 15429s
     0     0 -283.28504    0 1975 -305.07817 -283.28504  7.14%     - 15436s
     0     0 -283.28623    0 1978 -305.07817 -283.28623  7.14%     - 15440s
     0     0 -283.43499    0 1932 -305.07817 -283.43499  7.09%     - 15459s
     0     0 -283.46160    0 1947 -305.07817 -283.46160  7.09%     - 15484s
     0     0 -283.47462    0 1952 -305.07817 -283.47462  7.08%     - 15490s
     0     0 -283.47657    0 1983 -305.07817 -283.47657  7.08%     - 15495s
     0     0 -283.48284    0 1993 -305.07817 -283.48284  7.08%     - 15511s
     0     0 -283.48998    0 2034 -305.07817 -283.48998  7.08%     - 15529s
     0     0 -283.50146    0 1999 -305.07817 -283.50146  7.07%     - 15535s
     0     0 -283.50945    0 2001 -305.07817 -283.50945  7.07%     - 15541s
     0     0 -283.50951    0 2030 -305.07817 -283.50951  7.07%     - 15544s
     0     0 -283.51005    0 2032 -305.07817 -283.51005  7.07%     - 15557s
     0     0 -283.51005    0 1965 -305.07817 -283.51005  7.07%     - 15716s
     0     2 -283.52067    0 1965 -305.07817 -283.52067  7.07%     - 15976s
     1     3 -287.66062    1 2425 -305.07817 -283.55420  7.06% 18426 16042s
     2     4 -293.05013    2 1324 -305.07817 -283.55420  7.06% 10806 16057s
     4     6 -295.07417    4 1187 -305.07817 -283.55420  7.06%  5523 16060s
     6     8 -297.63036    5 1167 -305.07817 -283.55420  7.06%  3823 16065s
     7     9 -297.63036    5 1160 -305.07817 -283.55420  7.06%  3561 16070s
     8    10 -299.76052    6 1133 -305.07817 -283.55420  7.06%  3157 16080s
     9    11 -302.74275    7 1081 -305.07817 -283.55420  7.06%  2828 16093s
    14    10 -296.19486    1 1504 -305.07817 -287.76224  5.68%  3295 16269s
    15    11 -297.67643    2 1401 -305.07817 -287.76224  5.68%  3212 16280s
    17    11 -302.32885    3 1326 -305.07817 -287.76224  5.68%  3133 16300s
    18    12 -304.06783    4 1080 -305.07817 -287.76224  5.68%  3055 16318s
    21    11 -304.60072    5  571 -305.07817 -287.76224  5.68%  2673 16321s
    24    14 -305.03597    8  349 -305.07817 -287.76224  5.68%  2350 16331s
H   29     8                    -304.7265957 -287.76224  5.57%  1950 16385s
    30    11 -297.02400    3 1522 -304.72660 -293.22588  3.77%  2208 16391s
    32    13 -303.18404    4  519 -304.72660 -293.22588  3.77%  2104 16404s
    34    13 -303.61007    5  355 -304.72660 -293.22588  3.77%  1986 16405s
    40    15 -304.32634    9  317 -304.72660 -293.22588  3.77%  1704 16414s
    41    16 -304.58639   10  308 -304.72660 -293.22588  3.77%  1664 16415s
    46    12     cutoff    3      -304.72660 -294.60162  3.32%  1864 16532s
    47    13 -296.74499    3 1134 -304.72660 -296.28880  2.77%  1950 16553s
    48    14 -297.84577    4 1154 -304.72660 -296.28880  2.77%  1944 16573s
    49    15 -297.39611    4  978 -304.72660 -296.28880  2.77%  1938 16577s
    50    16 -297.75710    5 1301 -304.72660 -296.28880  2.77%  1920 16581s
    51    16 -304.61016    5  900 -304.72660 -296.28880  2.77%  1969 16604s
    53    16 -301.25307    6  995 -304.72660 -296.28880  2.77%  1906 16607s
    54    17 -302.95720    7  960 -304.72660 -296.28880  2.77%  1873 16623s
    55    18 -303.38323    8  917 -304.72660 -296.28880  2.77%  1839 16626s
H   57    14                    -301.8185206 -296.28880  1.83%  1776 16629s
    59    12     cutoff    7      -301.81852 -296.28880  1.83%  1717 16630s
    63    14 -300.61258    7 1102 -301.81852 -296.35226  1.81%  1617 16652s
    64    15 -301.46465    8 1059 -301.81852 -296.35226  1.81%  1592 16663s
    68    13 -300.61258    7 1093 -301.81852 -296.35226  1.81%  1502 16666s
    74    11 -298.48242    5 1120 -301.81852 -297.47577  1.44%  1387 16673s
    75    12 -301.46465    6 1090 -301.81852 -297.47577  1.44%  1370 16675s
    78    11 -300.61258    6 1104 -301.81852 -297.47577  1.44%  1322 16680s
    81    10 -298.00490    5  566 -301.81852 -297.49935  1.43%  1284 16698s
    82    11 -299.28215    6  709 -301.81852 -297.49935  1.43%  1270 16700s
    88    15 -301.20014   11  370 -301.81852 -297.49935  1.43%  1187 16712s
    92    15     cutoff   14      -301.81852 -297.49935  1.43%  1137 16715s
    94    15 -301.62617   12  330 -301.81852 -297.49935  1.43%  1113 16720s
    99    14 -298.92837    5  717 -301.81852 -297.63036  1.39%  1062 16729s
   100    15 -300.41948    6  707 -301.81852 -297.63036  1.39%  1053 16731s
   101    16 -300.84552    7  721 -301.81852 -297.63036  1.39%  1043 16740s
   109    13     cutoff    8      -301.81852 -297.63036  1.39%   971 16745s
   111    15 -300.61258    7 1147 -301.81852 -297.63036  1.39%   956 16751s
   116    12 -301.03862    6 1110 -301.81852 -297.84797  1.32%   920 16755s
   121    13 -298.67805    7  651 -301.81852 -297.84879  1.32%   887 16760s
   124    16 -299.37788   10  657 -301.81852 -297.84879  1.32%   871 16765s
   127    17     cutoff   13      -301.81852 -297.84879  1.32%   857 16770s
   132    16     cutoff   14      -301.81852 -297.84879  1.32%   834 16775s
   134    18 -298.43893    6 1190 -301.81852 -298.00490  1.26%   831 16780s
   135    19 -299.15371    7 1076 -301.81852 -298.00490  1.26%   831 16786s
   136    20 -299.60057    8 1492 -301.81852 -298.00490  1.26%   835 16796s
   138    22 -300.28467   10 1004 -301.81852 -298.00490  1.26%   831 16807s
   140    24 -301.29003   12  731 -301.81852 -298.00490  1.26%   824 16811s
   142    26 -301.71606   14  767 -301.81852 -298.00490  1.26%   823 16819s
   145    23     cutoff   14      -301.81852 -298.00490  1.26%   807 16820s
   147    23 -300.01144    6  570 -301.81852 -298.09683  1.23%   852 16907s
   148    24 -300.86197    7  660 -301.81852 -298.09683  1.23%   861 16927s
   150    24 -300.92402    8 1298 -301.81852 -298.09683  1.23%   887 16977s
   151    23     cutoff    9      -301.81852 -298.09683  1.23%   903 17008s
   152    22     cutoff    9      -301.81852 -298.09683  1.23%   898 17010s
   153    23 -301.71557    7  580 -301.81852 -298.09683  1.23%  1008 17246s
   155    21     cutoff    8      -301.81852 -298.09683  1.23%  1270 17896s
   157    23 -299.20949    7 1215 -301.81852 -298.20136  1.20%  1287 17934s
   158    24 -299.65650    8  521 -301.81852 -298.20136  1.20%  1293 17953s
   159    25 -299.76301    9  556 -301.81852 -298.20136  1.20%  1287 17957s
   160    26 -300.08253   10  583 -301.81852 -298.20136  1.20%  1299 17988s
   161    27 -300.50857   11  584 -301.81852 -298.20136  1.20%  1295 17998s
   162    26 -301.78666   12  543 -301.81852 -298.20136  1.20%  1326 18067s
   163    25     cutoff   12      -301.81852 -298.20136  1.20%  1362 18141s
   164    24     cutoff   11      -301.81852 -298.20136  1.20%  1412 18238s
   165    25 -301.36063   10  334 -301.81852 -298.20136  1.20%  1446 18305s
   167    25     cutoff   12      -301.81852 -298.20136  1.20%  1456 18347s
   169    27 -301.65489   13  323 -301.81852 -298.20136  1.20%  1444 18355s
   170    26     cutoff   14      -301.81852 -298.20136  1.20%  1460 18387s
   171    25     cutoff   14      -301.81852 -298.20136  1.20%  1455 18391s
   173    25 -299.14669    6  834 -301.81852 -298.31957  1.16%  1441 18395s
   177    27 -300.42831    9  337 -301.81852 -298.31957  1.16%  1415 18400s
   181    31 -301.25048   13  314 -301.81852 -298.31957  1.16%  1389 18406s
   184    28     cutoff   13      -301.81852 -298.31957  1.16%  1373 18411s
   186    26     cutoff    7      -301.81852 -298.32147  1.16%  1422 18521s
   187    25     cutoff    6      -301.81852 -298.46631  1.11%  1432 18549s
   188    24     cutoff    7      -301.81852 -298.67805  1.04%  1427 18550s
   189    25 -301.66028    8  482 -301.81852 -298.67805  1.04%  1450 18608s
   190    24     cutoff    9      -301.81852 -298.67805  1.04%  1447 18615s
   193    25 -298.74906    8  647 -301.81852 -298.72066  1.03%  1426 18620s
   197    27     cutoff   12      -301.81852 -298.72066  1.03%  1404 18627s
   199    29 -300.35297   13  326 -301.81852 -298.72066  1.03%  1392 18631s
   201    29     cutoff   15      -301.81852 -298.72066  1.03%  1382 18636s
   202    30 -300.96646   15  330 -301.81852 -298.72066  1.03%  1383 18649s
   203    31 -301.39249   16  319 -301.81852 -298.72066  1.03%  1379 18655s
   204    30     cutoff   17      -301.81852 -298.72066  1.03%  1377 18664s
   205    29     cutoff   17      -301.81852 -298.72066  1.03%  1371 18665s
   206    28     cutoff   16      -301.81852 -298.72066  1.03%  1368 18670s
   208    30 -301.23425    9  524 -301.81852 -298.74906  1.02%  1363 18677s
   212    28     cutoff   10      -301.81852 -298.74906  1.02%  1338 18680s
   216    28 -301.06384    9  543 -301.81852 -298.86329  0.98%  1322 18690s
   220    30 -301.50294   12  305 -301.81852 -298.86329  0.98%  1301 18697s
   222    28     cutoff   13      -301.81852 -298.86329  0.98%  1291 18700s
   224    28 -301.66028    9  421 -301.81852 -298.92837  0.96%  1287 18710s
   225    27     cutoff   10      -301.81852 -298.92837  0.96%  1288 18719s
   226    26     cutoff   10      -301.81852 -298.92837  0.96%  1285 18724s
   227    27 -300.93534    6  685 -301.81852 -299.10409  0.90%  1282 18726s
   231    25 -299.18897   10  636 -301.81852 -299.14669  0.89%  1264 18730s
   234    28 -300.29341   13  627 -301.81852 -299.14669  0.89%  1252 18736s
   239    27     cutoff   16      -301.81852 -299.14669  0.89%  1230 18740s
   245    29     cutoff   11      -301.81852 -299.19525  0.87%  1209 18753s
   246    30 -300.65658   11  647 -301.81852 -299.19525  0.87%  1205 18759s
   247    29     cutoff   12      -301.81852 -299.19525  0.87%  1202 18761s
   250    30 -301.35597   13  612 -301.81852 -299.19525  0.87%  1192 18766s
   255    29     cutoff   15      -301.81852 -299.19525  0.87%  1171 18770s
   258    28 -299.81133    8 1317 -301.81852 -299.22436  0.86%  1189 18845s
   259    29 -301.62395    9  616 -301.81852 -299.22436  0.86%  1209 18911s
   260    28     cutoff   10      -301.81852 -299.22436  0.86%  1217 18945s
   261    27     cutoff   10      -301.81852 -299.22436  0.86%  1253 19053s
   262    28 -299.86025    9 1279 -301.81852 -299.22436  0.86%  1250 19057s
   263    29 -300.31399   10  671 -301.81852 -299.22436  0.86%  1259 19088s
   264    30 -300.57395   11  679 -301.81852 -299.22436  0.86%  1262 19106s
   266    32 -301.15943   13  316 -301.81852 -299.22436  0.86%  1265 19142s
   267    33 -301.21955   14  313 -301.81852 -299.22436  0.86%  1262 19148s
   268    34 -301.59052   15  309 -301.81852 -299.22436  0.86%  1260 19160s
   269    33     cutoff   16      -301.81852 -299.22436  0.86%  1261 19170s
   271    31     cutoff   15      -301.81852 -299.22436  0.86%  1281 19252s
   272    30     cutoff   14      -301.81852 -299.22436  0.86%  1278 19259s
   273    29     cutoff    8      -301.81852 -299.33087  0.82%  1308 19344s
   274    30 -299.82566    7 1389 -301.81852 -299.39415  0.80%  1311 19356s
   276    32 -300.37537    9  842 -301.81852 -299.39415  0.80%  1307 19367s
   278    34 -301.24487   11  757 -301.81852 -299.39415  0.80%  1304 19382s
   279    33     cutoff   12      -301.81852 -299.39415  0.80%  1316 19417s
   280    32     cutoff   12      -301.81852 -299.39415  0.80%  1335 19482s
   281    31     cutoff   11      -301.81852 -299.39415  0.80%  1366 19583s
   282    30     cutoff   10      -301.81852 -299.39415  0.80%  1363 19586s
   284    32 -300.26599   12  643 -301.81852 -299.49601  0.77%  1356 19591s
   287    32 -300.55260   13  653 -301.81852 -299.49601  0.77%  1344 19595s
   292    35 -301.66028   17  509 -301.81852 -299.49601  0.77%  1322 19600s
   294    33     cutoff   18      -301.81852 -299.49601  0.77%  1319 19608s
   296    31     cutoff   16      -301.81852 -299.49601  0.77%  1311 19611s
   299    32 -300.08688    9  649 -301.81852 -299.57315  0.74%  1301 19616s
   301    32 -300.31719   10  645 -301.81852 -299.57315  0.74%  1295 19628s
   302    33 -300.44145   11  636 -301.81852 -299.57315  0.74%  1291 19631s
   303    34 -300.72547   12  644 -301.81852 -299.57315  0.74%  1288 19645s
   306    35     cutoff   15      -301.81852 -299.57315  0.74%  1277 19650s
   310    33     cutoff   14      -301.81852 -299.57315  0.74%  1264 19655s
   312    33     cutoff    9      -301.81852 -299.63329  0.72%  1261 19662s
   314    35 -301.02123   10  601 -301.81852 -299.63329  0.72%  1255 19667s
   316    33     cutoff   11      -301.81852 -299.63329  0.72%  1256 19682s
   317    33 -301.70762   11  570 -301.81852 -299.63329  0.72%  1254 19686s
   319    33 -301.41857   12  329 -301.81852 -299.65650  0.72%  1251 19695s
   320    32     cutoff   13      -301.81852 -299.65650  0.72%  1252 19704s
   321    33 -301.60116   13  326 -301.81852 -299.65650  0.72%  1250 19708s
   324    32 -300.50900    9  331 -301.81852 -299.67454  0.71%  1268 19810s
   325    31     cutoff   10      -301.81852 -299.67454  0.71%  1293 19911s
   326    32 -300.74036   10  340 -301.81852 -299.67454  0.71%  1310 19987s
   327    33 -301.79912   11  521 -301.81852 -299.67454  0.71%  1333 20088s
   328    32     cutoff   12      -301.81852 -299.67454  0.71%  1341 20123s
   329    31     cutoff   12      -301.81852 -299.67454  0.71%  1338 20128s
   330    32 -301.07770   11  346 -301.81852 -299.67454  0.71%  1352 20199s
   331    33 -301.22541   12  361 -301.81852 -299.67454  0.71%  1350 20204s
   332    34 -301.46004   13  290 -301.81852 -299.67454  0.71%  1350 20220s
   333    35 -301.65033   14  294 -301.81852 -299.67454  0.71%  1348 20228s
   334    34     cutoff   15      -301.81852 -299.67454  0.71%  1346 20233s
   335    33     cutoff   15      -301.81852 -299.67454  0.71%  1343 20238s
   336    32     cutoff   14      -301.81852 -299.67454  0.71%  1365 20318s
   337    31     cutoff   13      -301.81852 -299.67454  0.71%  1381 20386s
   338    30     cutoff    9      -301.81852 -299.71459  0.70%  1399 20462s
   340    30 -300.84099   12  594 -301.81852 -299.76681  0.68%  1394 20468s
   341    31 -301.42526   13  283 -301.81852 -299.76681  0.68%  1390 20470s
   344    30 -300.99970   13  592 -301.81852 -299.76681  0.68%  1381 20475s
   350    30     cutoff   16      -301.81852 -299.76681  0.68%  1359 20480s
   354    28     cutoff    8      -301.81852 -299.83220  0.66%  1346 20485s
   357    27 -301.28926   10  830 -301.81852 -299.89514  0.64%  1340 20505s
   358    28 -301.71530   11  600 -301.81852 -299.89514  0.64%  1339 20510s
   361    25     cutoff   11      -301.81852 -299.89514  0.64%  1335 20529s
   362    26 -300.36579   10  625 -301.81852 -299.90616  0.63%  1354 20620s
   363    25     cutoff   11      -301.81852 -299.90616  0.63%  1373 20708s
   364    26 -300.59715   11  613 -301.81852 -299.90616  0.63%  1371 20714s
   366    26 -300.93450   12  592 -301.81852 -299.90616  0.63%  1372 20744s
   367    27 -301.20322   13  608 -301.81852 -299.90616  0.63%  1374 20771s
   368    28 -301.53150   14  603 -301.81852 -299.90616  0.63%  1377 20798s
   369    27     cutoff   15      -301.81852 -299.90616  0.63%  1379 20823s
   370    26     cutoff   15      -301.81852 -299.90616  0.63%  1394 20896s
   371    25     cutoff   14      -301.81852 -299.90616  0.63%  1400 20931s
   372    24     cutoff   13      -301.81852 -299.90616  0.63%  1423 21056s
   374    26 -300.72301   14  547 -301.81852 -299.99918  0.60%  1417 21060s
   380    28 -301.74752   18  570 -301.81852 -299.99918  0.60%  1398 21067s
   384    26 -300.42522   10  650 -301.81852 -300.02597  0.59%  1384 21071s
   388    26 -300.99392   12  616 -301.81852 -300.02597  0.59%  1373 21077s
   390    28 -301.37626   14  584 -301.81852 -300.02597  0.59%  1367 21080s
   395    25     cutoff   14      -301.81852 -300.02597  0.59%  1353 21085s
   396    24     cutoff   13      -301.81852 -300.19281  0.54%  1356 21111s
   397    23     cutoff    8      -301.81852 -300.30556  0.50%  1373 21180s
   400    24 -300.84567   12  930 -301.81852 -300.33178  0.49%  1367 21190s
   401    25 -301.08799   13  904 -301.81852 -300.33178  0.49%  1366 21195s
   406    24     cutoff   15      -301.81852 -300.33178  0.49%  1352 21200s
   408    22     cutoff   13      -301.81852 -300.33178  0.49%  1348 21205s
   409    23 -301.46099   11  590 -301.81852 -300.34808  0.49%  1367 21297s
   410    22     cutoff   12      -301.81852 -300.34808  0.49%  1377 21352s
   411    21     cutoff   12      -301.81852 -300.34808  0.49%  1386 21404s
   412    22 -300.86393    9  335 -301.81852 -300.35543  0.48%  1383 21409s
   413    21     cutoff   10      -301.81852 -300.35543  0.48%  1380 21410s
   415    23 -301.45995   11  312 -301.81852 -300.35543  0.48%  1377 21416s
   417    21     cutoff   12      -301.81852 -300.35543  0.48%  1377 21430s
   419    19     cutoff   14      -301.81852 -300.37044  0.48%  1379 21456s
   423    19 -300.65658   10  647 -301.81852 -300.44145  0.46%  1369 21460s
   424    18     cutoff   11      -301.81852 -300.44145  0.46%  1370 21468s
   426    18     cutoff   12      -301.81852 -300.44145  0.46%  1365 21470s
   431    15     cutoff   10      -301.81852 -300.57117  0.41%  1353 21476s
   433    15 -300.73387   13  604 -301.81852 -300.57997  0.41%  1348 21481s
   434    16 -301.08888   14  625 -301.81852 -300.57997  0.41%  1361 21548s
   435    17 -301.31620   15  617 -301.81852 -300.57997  0.41%  1359 21554s
   436    18 -301.61304   16  613 -301.81852 -300.57997  0.41%  1362 21582s
   437    17     cutoff   17      -301.81852 -300.57997  0.41%  1373 21633s
   438    16     cutoff   17      -301.81852 -300.57997  0.41%  1371 21637s
   439    15     cutoff   16      -301.81852 -300.57997  0.41%  1369 21643s
   440    14     cutoff   15      -301.81852 -300.57997  0.41%  1367 21648s
   441    15 -301.00644   12  553 -301.81852 -300.60818  0.40%  1372 21683s
   442    16 -301.23780   13  561 -301.81852 -300.60818  0.40%  1370 21687s
   443    17 -301.57514   14  530 -301.81852 -300.60818  0.40%  1370 21696s
   444    16     cutoff   15      -301.81852 -300.60818  0.40%  1372 21716s
   445    15     cutoff   15      -301.81852 -300.60818  0.40%  1372 21729s
   446    14     cutoff   14      -301.81852 -300.60818  0.40%  1382 21784s
   447    13     cutoff   13      -301.81852 -300.60818  0.40%  1380 21789s
   448    14 -300.85372   12 1110 -301.81852 -300.66621  0.38%  1388 21840s
   449    15 -301.49034   13  649 -301.81852 -300.66621  0.38%  1387 21848s
   450    14     cutoff   14      -301.81852 -300.66621  0.38%  1392 21875s
   451    15 -301.72170   14  654 -301.81852 -300.66621  0.38%  1391 21885s
   452    14     cutoff   15      -301.81852 -300.66621  0.38%  1392 21896s
   454    14 -300.89658   13  782 -301.81852 -300.66621  0.38%  1386 21900s
   456    16 -301.07692   15  638 -301.81852 -300.66621  0.38%  1382 21911s
   457    17 -301.18602   16  653 -301.81852 -300.66621  0.38%  1380 21915s
   459    17     cutoff   18      -301.81852 -300.66621  0.38%  1400 22016s
   461    15     cutoff   17      -301.81852 -300.66621  0.38%  1395 22020s
   462    15 -301.78664   16  755 -301.81852 -300.66621  0.38%  1395 22032s
   463    14     cutoff   17      -301.81852 -300.66621  0.38%  1406 22086s
   465    12     cutoff   11      -301.81852 -300.72547  0.36%  1407 22100s
   467    10     cutoff   14      -301.81852 -300.77411  0.35%  1428 22218s
   468    11 -300.86393   11  336 -301.81852 -300.83269  0.33%  1425 22220s
   470    11 -301.09529   12  337 -301.81852 -300.83269  0.33%  1421 22229s
   472    11 -301.43264   13  311 -301.81852 -300.83269  0.33%  1416 22231s
   474    13 -301.81497   15  287 -301.81852 -300.83269  0.33%  1412 22235s
   480     9 -301.75695   14  522 -301.81852 -300.99373  0.27%  1406 22280s
   481     8     cutoff   15      -301.81852 -300.99373  0.27%  1414 22321s
   483     8 -301.43657   15  786 -301.81852 -301.06384  0.25%  1410 22327s
   485     8 -301.43678   16  790 -301.81852 -301.06384  0.25%  1405 22332s
   486     7     cutoff   17      -301.81852 -301.06384  0.25%  1404 22338s
   487     8 -301.43699   17  787 -301.81852 -301.06384  0.25%  1401 22340s
   489     8 -301.48096   18  705 -301.81852 -301.06384  0.25%  1397 22345s
   491     8 -301.54019   19  663 -301.81852 -301.06384  0.25%  1393 22351s
   492     9 -301.70310   20  635 -301.81852 -301.06384  0.25%  1393 22356s
   493     8     cutoff   21      -301.81852 -301.06384  0.25%  1395 22367s
   496     7 -301.23425   10  319 -301.81852 -301.08388  0.24%  1388 22370s
   499     8 -301.74797   12  321 -301.81852 -301.08388  0.24%  1381 22375s
   504     3     cutoff   12      -301.81852 -301.11957  0.23%  1384 22451s
   508     3 -301.39296   13  321 -301.81852 -301.36063  0.15%  1375 22456s
   513     0     cutoff   11      -301.81852 -301.81852  0.00%  1380 22552s

Cutting planes:
  Gomory: 3
  Zero half: 595

Explored 514 nodes (1334255 simplex iterations) in 22552.85 seconds
Thread count was 1 (of 80 available processors)

Solution count 10: -301.819 -304.727 -305.078 ... -327.662

Optimal solution found (tolerance 1.00e-04)
Best objective -3.018185205566e+02, best bound -3.018185205566e+02, gap 0.0000%
